
Gurobi 10.0.1 (linux64) logging started Sun Nov 26 16:06:03 2023

Set parameter LogFile to value "ArtificialInstance/ExperimentV2/S2T4K3/AdSp/gurobi91.txt"
Gurobi Optimizer version 10.0.1 build v10.0.1rc0 (linux64)

CPU model: AMD EPYC 7H12 64-Core Processor, instruction set [SSE2|AVX|AVX2]
Thread count: 128 physical cores, 128 logical processors, using up to 32 threads

Academic license 656792 - for non-commercial use only - registered to b.___@student.vu.nl
Optimize a model with 12940 rows, 12258 columns and 47180 nonzeros
Model fingerprint: 0xca30c14a
Variable types: 0 continuous, 12258 integer (12258 binary)
Coefficient statistics:
  Matrix range     [1e+00, 1e+00]
  Objective range  [2e+00, 2e+01]
  Bounds range     [1e+00, 1e+00]
  RHS range        [1e+00, 1e+00]
Presolve removed 4431 rows and 4420 columns
Presolve time: 0.30s
Presolved: 8509 rows, 7838 columns, 30474 nonzeros
Variable types: 0 continuous, 7838 integer (7838 binary)

Root relaxation: objective 7.519955e+01, 4229 iterations, 0.13 seconds (0.08 work units)

    Nodes    |    Current Node    |     Objective Bounds      |     Work
 Expl Unexpl |  Obj  Depth IntInf | Incumbent    BestBd   Gap | It/Node Time

     0     0   75.19955    0  291          -   75.19955      -     -    0s
H    0     0                     140.2434207   75.19955  46.4%     -    0s
H    0     0                     114.1572448   75.19955  34.1%     -    0s
H    0     0                      83.6025272   75.19955  10.1%     -    0s
H    0     0                      80.8874014   75.19955  7.03%     -    0s
     0     0   76.68924    0  157   80.88740   76.68924  5.19%     -    0s
     0     0   76.68924    0  278   80.88740   76.68924  5.19%     -    1s
     0     0   76.68924    0  144   80.88740   76.68924  5.19%     -    1s
H    0     0                      76.8475163   76.68924  0.21%     -    1s

Cutting planes:
  Gomory: 22
  Zero half: 23

Explored 1 nodes (10505 simplex iterations) in 1.27 seconds (0.68 work units)
Thread count was 32 (of 128 available processors)

Solution count 5: 76.8475 80.8874 83.6025 ... 140.243

Optimal solution found (tolerance 1.00e-04)
Best objective 7.684751630607e+01, best bound 7.684751630607e+01, gap 0.0000%
